(declare-datatypes () ((Lst (cons (head Int) (tail Lst)) (nil))))

(declare-fun append (Lst Lst) Lst)
(assert (forall ((x Lst)) (= (append nil x) x)))
(assert (forall ((x Int) (y Lst) (z Lst)) (= (append (cons x y) z) (cons x (append y z)))))

(declare-fun len (Lst) Int)
(assert (= (len nil) 0))
(assert (forall ((x Int) (y Lst)) (= (len (cons x y)) (+ 1 (len y)))))

(assert (not (forall ((x Lst) (y Lst)) (= (+ (len x) (len y)) (len (append x y))))))
(check-sat)
